&CONTROL
  calculation = 'bands',
  prefix = 'm1',
  pseudo_dir         = './pseudo/',
  outdir             = './out/',
  verbosity = 'high',
/
&SYSTEM
  degauss = 0.0001,
  ecutrho = 840,
  ecutwfc = 70,
  nbnd = 70,
  occupations = 'smearing',
  smearing = 'marzari-vanderbilt',
  ibrav = 0,
  nat = 12,
  ntyp = 2,
  nosym = .true.
/
&ELECTRONS
   conv_thr = 5.0d-8,
/
&IONS
/
&CELL
/
ATOMIC_SPECIES
   V 50.94 v_pbe_v1.4.uspp.F.UPF
   O 16.00 o_pbe_v1.2.uspp.F.UPF


CELL_PARAMETERS angstrom
 5.7028  0.0000  0.0000
 0.0000  3.2206  3.2206
-2.8514 -3.2206  3.2206
 
ATOMIC_POSITIONS crystal
 V  0.51053  0.97894  0.97354
 V  0.98947  1.02106  1.02646
 V  0.51053  0.52106  0.47354
 V  0.98947  0.47894  0.52646
 O  0.15051  0.29742  0.29884
 O  0.64384  0.28815  0.29141
 O  0.85616  0.71185  0.70859
 O  0.34949  0.70258  0.70116
 O  0.34949  0.79742  0.20116
 O  0.85616  0.78815  0.20859
 O  0.64384  0.21185  0.79141
 O  0.15051  0.20258  0.79884

K_POINTS crystal
288
  0.00000000  0.00000000  0.00000000  3.472222e-03
  0.00000000  0.00000000  0.12500000  3.472222e-03
  0.00000000  0.00000000  0.25000000  3.472222e-03
  0.00000000  0.00000000  0.37500000  3.472222e-03
  0.00000000  0.00000000  0.50000000  3.472222e-03
  0.00000000  0.00000000  0.62500000  3.472222e-03
  0.00000000  0.00000000  0.75000000  3.472222e-03
  0.00000000  0.00000000  0.87500000  3.472222e-03
  0.00000000  0.16666667  0.00000000  3.472222e-03
  0.00000000  0.16666667  0.12500000  3.472222e-03
  0.00000000  0.16666667  0.25000000  3.472222e-03
  0.00000000  0.16666667  0.37500000  3.472222e-03
  0.00000000  0.16666667  0.50000000  3.472222e-03
  0.00000000  0.16666667  0.62500000  3.472222e-03
  0.00000000  0.16666667  0.75000000  3.472222e-03
  0.00000000  0.16666667  0.87500000  3.472222e-03
  0.00000000  0.33333333  0.00000000  3.472222e-03
  0.00000000  0.33333333  0.12500000  3.472222e-03
  0.00000000  0.33333333  0.25000000  3.472222e-03
  0.00000000  0.33333333  0.37500000  3.472222e-03
  0.00000000  0.33333333  0.50000000  3.472222e-03
  0.00000000  0.33333333  0.62500000  3.472222e-03
  0.00000000  0.33333333  0.75000000  3.472222e-03
  0.00000000  0.33333333  0.87500000  3.472222e-03
  0.00000000  0.50000000  0.00000000  3.472222e-03
  0.00000000  0.50000000  0.12500000  3.472222e-03
  0.00000000  0.50000000  0.25000000  3.472222e-03
  0.00000000  0.50000000  0.37500000  3.472222e-03
  0.00000000  0.50000000  0.50000000  3.472222e-03
  0.00000000  0.50000000  0.62500000  3.472222e-03
  0.00000000  0.50000000  0.75000000  3.472222e-03
  0.00000000  0.50000000  0.87500000  3.472222e-03
  0.00000000  0.66666667  0.00000000  3.472222e-03
  0.00000000  0.66666667  0.12500000  3.472222e-03
  0.00000000  0.66666667  0.25000000  3.472222e-03
  0.00000000  0.66666667  0.37500000  3.472222e-03
  0.00000000  0.66666667  0.50000000  3.472222e-03
  0.00000000  0.66666667  0.62500000  3.472222e-03
  0.00000000  0.66666667  0.75000000  3.472222e-03
  0.00000000  0.66666667  0.87500000  3.472222e-03
  0.00000000  0.83333333  0.00000000  3.472222e-03
  0.00000000  0.83333333  0.12500000  3.472222e-03
  0.00000000  0.83333333  0.25000000  3.472222e-03
  0.00000000  0.83333333  0.37500000  3.472222e-03
  0.00000000  0.83333333  0.50000000  3.472222e-03
  0.00000000  0.83333333  0.62500000  3.472222e-03
  0.00000000  0.83333333  0.75000000  3.472222e-03
  0.00000000  0.83333333  0.87500000  3.472222e-03
  0.16666667  0.00000000  0.00000000  3.472222e-03
  0.16666667  0.00000000  0.12500000  3.472222e-03
  0.16666667  0.00000000  0.25000000  3.472222e-03
  0.16666667  0.00000000  0.37500000  3.472222e-03
  0.16666667  0.00000000  0.50000000  3.472222e-03
  0.16666667  0.00000000  0.62500000  3.472222e-03
  0.16666667  0.00000000  0.75000000  3.472222e-03
  0.16666667  0.00000000  0.87500000  3.472222e-03
  0.16666667  0.16666667  0.00000000  3.472222e-03
  0.16666667  0.16666667  0.12500000  3.472222e-03
  0.16666667  0.16666667  0.25000000  3.472222e-03
  0.16666667  0.16666667  0.37500000  3.472222e-03
  0.16666667  0.16666667  0.50000000  3.472222e-03
  0.16666667  0.16666667  0.62500000  3.472222e-03
  0.16666667  0.16666667  0.75000000  3.472222e-03
  0.16666667  0.16666667  0.87500000  3.472222e-03
  0.16666667  0.33333333  0.00000000  3.472222e-03
  0.16666667  0.33333333  0.12500000  3.472222e-03
  0.16666667  0.33333333  0.25000000  3.472222e-03
  0.16666667  0.33333333  0.37500000  3.472222e-03
  0.16666667  0.33333333  0.50000000  3.472222e-03
  0.16666667  0.33333333  0.62500000  3.472222e-03
  0.16666667  0.33333333  0.75000000  3.472222e-03
  0.16666667  0.33333333  0.87500000  3.472222e-03
  0.16666667  0.50000000  0.00000000  3.472222e-03
  0.16666667  0.50000000  0.12500000  3.472222e-03
  0.16666667  0.50000000  0.25000000  3.472222e-03
  0.16666667  0.50000000  0.37500000  3.472222e-03
  0.16666667  0.50000000  0.50000000  3.472222e-03
  0.16666667  0.50000000  0.62500000  3.472222e-03
  0.16666667  0.50000000  0.75000000  3.472222e-03
  0.16666667  0.50000000  0.87500000  3.472222e-03
  0.16666667  0.66666667  0.00000000  3.472222e-03
  0.16666667  0.66666667  0.12500000  3.472222e-03
  0.16666667  0.66666667  0.25000000  3.472222e-03
  0.16666667  0.66666667  0.37500000  3.472222e-03
  0.16666667  0.66666667  0.50000000  3.472222e-03
  0.16666667  0.66666667  0.62500000  3.472222e-03
  0.16666667  0.66666667  0.75000000  3.472222e-03
  0.16666667  0.66666667  0.87500000  3.472222e-03
  0.16666667  0.83333333  0.00000000  3.472222e-03
  0.16666667  0.83333333  0.12500000  3.472222e-03
  0.16666667  0.83333333  0.25000000  3.472222e-03
  0.16666667  0.83333333  0.37500000  3.472222e-03
  0.16666667  0.83333333  0.50000000  3.472222e-03
  0.16666667  0.83333333  0.62500000  3.472222e-03
  0.16666667  0.83333333  0.75000000  3.472222e-03
  0.16666667  0.83333333  0.87500000  3.472222e-03
  0.33333333  0.00000000  0.00000000  3.472222e-03
  0.33333333  0.00000000  0.12500000  3.472222e-03
  0.33333333  0.00000000  0.25000000  3.472222e-03
  0.33333333  0.00000000  0.37500000  3.472222e-03
  0.33333333  0.00000000  0.50000000  3.472222e-03
  0.33333333  0.00000000  0.62500000  3.472222e-03
  0.33333333  0.00000000  0.75000000  3.472222e-03
  0.33333333  0.00000000  0.87500000  3.472222e-03
  0.33333333  0.16666667  0.00000000  3.472222e-03
  0.33333333  0.16666667  0.12500000  3.472222e-03
  0.33333333  0.16666667  0.25000000  3.472222e-03
  0.33333333  0.16666667  0.37500000  3.472222e-03
  0.33333333  0.16666667  0.50000000  3.472222e-03
  0.33333333  0.16666667  0.62500000  3.472222e-03
  0.33333333  0.16666667  0.75000000  3.472222e-03
  0.33333333  0.16666667  0.87500000  3.472222e-03
  0.33333333  0.33333333  0.00000000  3.472222e-03
  0.33333333  0.33333333  0.12500000  3.472222e-03
  0.33333333  0.33333333  0.25000000  3.472222e-03
  0.33333333  0.33333333  0.37500000  3.472222e-03
  0.33333333  0.33333333  0.50000000  3.472222e-03
  0.33333333  0.33333333  0.62500000  3.472222e-03
  0.33333333  0.33333333  0.75000000  3.472222e-03
  0.33333333  0.33333333  0.87500000  3.472222e-03
  0.33333333  0.50000000  0.00000000  3.472222e-03
  0.33333333  0.50000000  0.12500000  3.472222e-03
  0.33333333  0.50000000  0.25000000  3.472222e-03
  0.33333333  0.50000000  0.37500000  3.472222e-03
  0.33333333  0.50000000  0.50000000  3.472222e-03
  0.33333333  0.50000000  0.62500000  3.472222e-03
  0.33333333  0.50000000  0.75000000  3.472222e-03
  0.33333333  0.50000000  0.87500000  3.472222e-03
  0.33333333  0.66666667  0.00000000  3.472222e-03
  0.33333333  0.66666667  0.12500000  3.472222e-03
  0.33333333  0.66666667  0.25000000  3.472222e-03
  0.33333333  0.66666667  0.37500000  3.472222e-03
  0.33333333  0.66666667  0.50000000  3.472222e-03
  0.33333333  0.66666667  0.62500000  3.472222e-03
  0.33333333  0.66666667  0.75000000  3.472222e-03
  0.33333333  0.66666667  0.87500000  3.472222e-03
  0.33333333  0.83333333  0.00000000  3.472222e-03
  0.33333333  0.83333333  0.12500000  3.472222e-03
  0.33333333  0.83333333  0.25000000  3.472222e-03
  0.33333333  0.83333333  0.37500000  3.472222e-03
  0.33333333  0.83333333  0.50000000  3.472222e-03
  0.33333333  0.83333333  0.62500000  3.472222e-03
  0.33333333  0.83333333  0.75000000  3.472222e-03
  0.33333333  0.83333333  0.87500000  3.472222e-03
  0.50000000  0.00000000  0.00000000  3.472222e-03
  0.50000000  0.00000000  0.12500000  3.472222e-03
  0.50000000  0.00000000  0.25000000  3.472222e-03
  0.50000000  0.00000000  0.37500000  3.472222e-03
  0.50000000  0.00000000  0.50000000  3.472222e-03
  0.50000000  0.00000000  0.62500000  3.472222e-03
  0.50000000  0.00000000  0.75000000  3.472222e-03
  0.50000000  0.00000000  0.87500000  3.472222e-03
  0.50000000  0.16666667  0.00000000  3.472222e-03
  0.50000000  0.16666667  0.12500000  3.472222e-03
  0.50000000  0.16666667  0.25000000  3.472222e-03
  0.50000000  0.16666667  0.37500000  3.472222e-03
  0.50000000  0.16666667  0.50000000  3.472222e-03
  0.50000000  0.16666667  0.62500000  3.472222e-03
  0.50000000  0.16666667  0.75000000  3.472222e-03
  0.50000000  0.16666667  0.87500000  3.472222e-03
  0.50000000  0.33333333  0.00000000  3.472222e-03
  0.50000000  0.33333333  0.12500000  3.472222e-03
  0.50000000  0.33333333  0.25000000  3.472222e-03
  0.50000000  0.33333333  0.37500000  3.472222e-03
  0.50000000  0.33333333  0.50000000  3.472222e-03
  0.50000000  0.33333333  0.62500000  3.472222e-03
  0.50000000  0.33333333  0.75000000  3.472222e-03
  0.50000000  0.33333333  0.87500000  3.472222e-03
  0.50000000  0.50000000  0.00000000  3.472222e-03
  0.50000000  0.50000000  0.12500000  3.472222e-03
  0.50000000  0.50000000  0.25000000  3.472222e-03
  0.50000000  0.50000000  0.37500000  3.472222e-03
  0.50000000  0.50000000  0.50000000  3.472222e-03
  0.50000000  0.50000000  0.62500000  3.472222e-03
  0.50000000  0.50000000  0.75000000  3.472222e-03
  0.50000000  0.50000000  0.87500000  3.472222e-03
  0.50000000  0.66666667  0.00000000  3.472222e-03
  0.50000000  0.66666667  0.12500000  3.472222e-03
  0.50000000  0.66666667  0.25000000  3.472222e-03
  0.50000000  0.66666667  0.37500000  3.472222e-03
  0.50000000  0.66666667  0.50000000  3.472222e-03
  0.50000000  0.66666667  0.62500000  3.472222e-03
  0.50000000  0.66666667  0.75000000  3.472222e-03
  0.50000000  0.66666667  0.87500000  3.472222e-03
  0.50000000  0.83333333  0.00000000  3.472222e-03
  0.50000000  0.83333333  0.12500000  3.472222e-03
  0.50000000  0.83333333  0.25000000  3.472222e-03
  0.50000000  0.83333333  0.37500000  3.472222e-03
  0.50000000  0.83333333  0.50000000  3.472222e-03
  0.50000000  0.83333333  0.62500000  3.472222e-03
  0.50000000  0.83333333  0.75000000  3.472222e-03
  0.50000000  0.83333333  0.87500000  3.472222e-03
  0.66666667  0.00000000  0.00000000  3.472222e-03
  0.66666667  0.00000000  0.12500000  3.472222e-03
  0.66666667  0.00000000  0.25000000  3.472222e-03
  0.66666667  0.00000000  0.37500000  3.472222e-03
  0.66666667  0.00000000  0.50000000  3.472222e-03
  0.66666667  0.00000000  0.62500000  3.472222e-03
  0.66666667  0.00000000  0.75000000  3.472222e-03
  0.66666667  0.00000000  0.87500000  3.472222e-03
  0.66666667  0.16666667  0.00000000  3.472222e-03
  0.66666667  0.16666667  0.12500000  3.472222e-03
  0.66666667  0.16666667  0.25000000  3.472222e-03
  0.66666667  0.16666667  0.37500000  3.472222e-03
  0.66666667  0.16666667  0.50000000  3.472222e-03
  0.66666667  0.16666667  0.62500000  3.472222e-03
  0.66666667  0.16666667  0.75000000  3.472222e-03
  0.66666667  0.16666667  0.87500000  3.472222e-03
  0.66666667  0.33333333  0.00000000  3.472222e-03
  0.66666667  0.33333333  0.12500000  3.472222e-03
  0.66666667  0.33333333  0.25000000  3.472222e-03
  0.66666667  0.33333333  0.37500000  3.472222e-03
  0.66666667  0.33333333  0.50000000  3.472222e-03
  0.66666667  0.33333333  0.62500000  3.472222e-03
  0.66666667  0.33333333  0.75000000  3.472222e-03
  0.66666667  0.33333333  0.87500000  3.472222e-03
  0.66666667  0.50000000  0.00000000  3.472222e-03
  0.66666667  0.50000000  0.12500000  3.472222e-03
  0.66666667  0.50000000  0.25000000  3.472222e-03
  0.66666667  0.50000000  0.37500000  3.472222e-03
  0.66666667  0.50000000  0.50000000  3.472222e-03
  0.66666667  0.50000000  0.62500000  3.472222e-03
  0.66666667  0.50000000  0.75000000  3.472222e-03
  0.66666667  0.50000000  0.87500000  3.472222e-03
  0.66666667  0.66666667  0.00000000  3.472222e-03
  0.66666667  0.66666667  0.12500000  3.472222e-03
  0.66666667  0.66666667  0.25000000  3.472222e-03
  0.66666667  0.66666667  0.37500000  3.472222e-03
  0.66666667  0.66666667  0.50000000  3.472222e-03
  0.66666667  0.66666667  0.62500000  3.472222e-03
  0.66666667  0.66666667  0.75000000  3.472222e-03
  0.66666667  0.66666667  0.87500000  3.472222e-03
  0.66666667  0.83333333  0.00000000  3.472222e-03
  0.66666667  0.83333333  0.12500000  3.472222e-03
  0.66666667  0.83333333  0.25000000  3.472222e-03
  0.66666667  0.83333333  0.37500000  3.472222e-03
  0.66666667  0.83333333  0.50000000  3.472222e-03
  0.66666667  0.83333333  0.62500000  3.472222e-03
  0.66666667  0.83333333  0.75000000  3.472222e-03
  0.66666667  0.83333333  0.87500000  3.472222e-03
  0.83333333  0.00000000  0.00000000  3.472222e-03
  0.83333333  0.00000000  0.12500000  3.472222e-03
  0.83333333  0.00000000  0.25000000  3.472222e-03
  0.83333333  0.00000000  0.37500000  3.472222e-03
  0.83333333  0.00000000  0.50000000  3.472222e-03
  0.83333333  0.00000000  0.62500000  3.472222e-03
  0.83333333  0.00000000  0.75000000  3.472222e-03
  0.83333333  0.00000000  0.87500000  3.472222e-03
  0.83333333  0.16666667  0.00000000  3.472222e-03
  0.83333333  0.16666667  0.12500000  3.472222e-03
  0.83333333  0.16666667  0.25000000  3.472222e-03
  0.83333333  0.16666667  0.37500000  3.472222e-03
  0.83333333  0.16666667  0.50000000  3.472222e-03
  0.83333333  0.16666667  0.62500000  3.472222e-03
  0.83333333  0.16666667  0.75000000  3.472222e-03
  0.83333333  0.16666667  0.87500000  3.472222e-03
  0.83333333  0.33333333  0.00000000  3.472222e-03
  0.83333333  0.33333333  0.12500000  3.472222e-03
  0.83333333  0.33333333  0.25000000  3.472222e-03
  0.83333333  0.33333333  0.37500000  3.472222e-03
  0.83333333  0.33333333  0.50000000  3.472222e-03
  0.83333333  0.33333333  0.62500000  3.472222e-03
  0.83333333  0.33333333  0.75000000  3.472222e-03
  0.83333333  0.33333333  0.87500000  3.472222e-03
  0.83333333  0.50000000  0.00000000  3.472222e-03
  0.83333333  0.50000000  0.12500000  3.472222e-03
  0.83333333  0.50000000  0.25000000  3.472222e-03
  0.83333333  0.50000000  0.37500000  3.472222e-03
  0.83333333  0.50000000  0.50000000  3.472222e-03
  0.83333333  0.50000000  0.62500000  3.472222e-03
  0.83333333  0.50000000  0.75000000  3.472222e-03
  0.83333333  0.50000000  0.87500000  3.472222e-03
  0.83333333  0.66666667  0.00000000  3.472222e-03
  0.83333333  0.66666667  0.12500000  3.472222e-03
  0.83333333  0.66666667  0.25000000  3.472222e-03
  0.83333333  0.66666667  0.37500000  3.472222e-03
  0.83333333  0.66666667  0.50000000  3.472222e-03
  0.83333333  0.66666667  0.62500000  3.472222e-03
  0.83333333  0.66666667  0.75000000  3.472222e-03
  0.83333333  0.66666667  0.87500000  3.472222e-03
  0.83333333  0.83333333  0.00000000  3.472222e-03
  0.83333333  0.83333333  0.12500000  3.472222e-03
  0.83333333  0.83333333  0.25000000  3.472222e-03
  0.83333333  0.83333333  0.37500000  3.472222e-03
  0.83333333  0.83333333  0.50000000  3.472222e-03
  0.83333333  0.83333333  0.62500000  3.472222e-03
  0.83333333  0.83333333  0.75000000  3.472222e-03
  0.83333333  0.83333333  0.87500000  3.472222e-03

