 &bands
    prefix  = 'm1'
    filband = 'bands.m1.dat'
    outdir  = './out/'
 /


