&PROJWFC
    prefix = 'm1'
    filpdos = 'm1'
    kresolveddos = .false.
    outdir = './out'
    degauss = 0.005
 /

