 &bands
    prefix  = 'rut'
    filband = 'bands.rut.dat'
    outdir  = './out/'
 /


